(set-logic HORN)
(set-info :source |
    Benchmark: 
    Output by Princess (http://www.philipp.ruemmer.org/princess.shtml)
|)
(declare-heap Heap Addr HeapObject
 defObj
 ((HeapObject 0) (TSLL 0)) (
  (
   (O_Int (getInt Int))
   (O_UInt (getUInt Int))
   (O_Addr (getAddr Addr))
   (O_AddrRange (getAddrRange AddrRange))
   (O_TSLL (getTSLL TSLL))
   (defObj)
  )
  (
   (TSLL (|TSLL::next| Addr) (|TSLL::prev| Addr) (|TSLL::data| Int))
  )
))
(declare-fun _Glue9 (Heap Addr Addr Addr HeapObject) Bool)
(declare-fun _Glue22 (Heap Addr Addr HeapObject) Bool)
(declare-fun _Glue10 (Addr Addr Addr Heap Addr HeapObject) Bool)
(declare-fun _Glue29 (Heap Addr Addr HeapObject) Bool)
(declare-fun _Glue3 (Heap Addr Addr HeapObject) Bool)
(declare-fun _Glue14_exp_exp (Addr Addr Addr Int Addr Heap Addr HeapObject) Bool)
(declare-fun inv_main1009_2 (Heap Addr Addr) Bool)
(declare-fun _Glue20 (Addr Addr Addr Heap Addr HeapObject) Bool)
(declare-fun _Glue17 (Addr Addr Addr Addr Heap HeapObject) Bool)
(declare-fun _Glue27 (Addr Addr Heap HeapObject) Bool)
(declare-fun _Glue24 (Heap HeapObject) Bool)
(declare-fun _Glue7 (Addr Addr Addr Addr Heap HeapObject) Bool)
(declare-fun _Glue12 (Heap Addr Addr HeapObject) Bool)
(declare-fun _Glue1 (Addr Addr Addr Heap HeapObject) Bool)
(declare-fun Inv_Heap_exp_exp (Addr Addr Addr Int) Bool)
(declare-fun _Glue23 (Addr Addr Heap Addr HeapObject) Bool)
(declare-fun _Glue31 (Heap Addr HeapObject) Bool)
(declare-fun inv_main_17 (Heap Addr) Bool)
(declare-fun _Glue19 (Heap Addr Addr Addr HeapObject) Bool)
(declare-fun _Glue13 (Addr Heap Addr HeapObject) Bool)
(declare-fun _Glue4 (Addr Addr Heap Addr HeapObject) Bool)
(assert (forall ((var0 Addr) (var1 Addr) (var2 Heap)) (not (and (inv_main1009_2 var2 var1 var0) (= nullAddr var1)))))
(assert (forall ((var0 AllocResHeap) (var1 Int) (var2 Addr) (var3 Addr) (var4 HeapObject) (var5 TSLL) (var6 Addr) (var7 Addr) (var8 Heap)) (or (not (and (inv_main1009_2 var8 var7 var6) (and (and (= (O_TSLL var5) var4) (= (TSLL var3 var2 var1) var5)) (= (alloc var8 var4) var0)))) (Inv_Heap_exp_exp (newAddr var0) var3 var2 var1))))
(assert (forall ((var0 Addr) (var1 AllocResHeap) (var2 Addr) (var3 Heap) (var4 HeapObject) (var5 TSLL) (var6 HeapObject) (var7 TSLL) (var8 Addr) (var9 Heap) (var10 Int) (var11 Addr) (var12 Addr) (var13 Addr)) (or (not (and (and (Inv_Heap_exp_exp var13 var12 var11 var10) (inv_main1009_2 var9 var8 var13)) (and (and (and (and (and (and (and (= (O_TSLL var7) var6) (= (O_TSLL var5) var4)) (= (AllocResHeap var3 var2) var1)) (= (TSLL var12 var11 var10) var7)) (= (read var3 var13) var6)) (valid var3 var13)) (= nullAddr var0)) (= (alloc var9 var4) var1)))) (_Glue7 var13 var8 var0 var2 var3 var6))))
(assert (forall ((var0 Addr) (var1 AllocResHeap) (var2 Addr) (var3 HeapObject) (var4 TSLL) (var5 HeapObject) (var6 Heap) (var7 Addr) (var8 Addr) (var9 Heap)) (or (not (and (inv_main1009_2 var9 var8 var7) (and (and (and (and (and (= (read var6 var7) var5) (not (valid var6 var7))) (= (O_TSLL var4) var3)) (= (AllocResHeap var6 var2) var1)) (= nullAddr var0)) (= (alloc var9 var3) var1)))) (_Glue7 var7 var8 var0 var2 var6 var5))))
(assert (forall ((var0 Int) (var1 Addr) (var2 TSLL) (var3 HeapObject) (var4 Heap) (var5 Addr) (var6 Addr) (var7 Addr) (var8 Addr)) (or (not (and (_Glue7 var8 var7 var6 var5 var4 var3) (and (and (and (= (getTSLL var3) var2) (= (|TSLL::prev| var2) var1)) (= (|TSLL::data| var2) var0)) (valid var4 var8)))) (Inv_Heap_exp_exp var8 var5 var1 var0))))
(assert (forall ((var0 TSLL) (var1 Heap) (var2 HeapObject) (var3 TSLL) (var4 Int) (var5 Addr) (var6 HeapObject) (var7 TSLL) (var8 HeapObject) (var9 Heap) (var10 Addr) (var11 Addr) (var12 Addr) (var13 Int) (var14 Addr) (var15 Addr) (var16 Addr)) (or (not (and (and (Inv_Heap_exp_exp var16 var15 var14 var13) (_Glue7 var16 var12 var11 var10 var9 var8)) (and (and (and (and (and (and (and (and (and (= (O_TSLL var7) var6) (= (TSLL var10 var5 var4) var3)) (= (O_TSLL var3) var2)) (= (TSLL var15 var14 var13) var7)) (= (read var1 var16) var6)) (valid var1 var16)) (= (getTSLL var8) var0)) (= (|TSLL::prev| var0) var5)) (= (|TSLL::data| var0) var4)) (= (write var9 var16 var2) var1)))) (_Glue9 var1 var16 var12 var11 var6))))
(assert (forall ((var0 HeapObject) (var1 TSLL) (var2 Int) (var3 Addr) (var4 TSLL) (var5 HeapObject) (var6 Heap) (var7 HeapObject) (var8 Heap) (var9 Addr) (var10 Addr) (var11 Addr) (var12 Addr)) (or (not (and (_Glue7 var12 var11 var10 var9 var8 var7) (and (and (and (and (and (and (and (= (read var6 var12) var5) (not (valid var6 var12))) (= (getTSLL var7) var4)) (= (|TSLL::prev| var4) var3)) (= (|TSLL::data| var4) var2)) (= (TSLL var9 var3 var2) var1)) (= (O_TSLL var1) var0)) (= (write var8 var12 var0) var6)))) (_Glue9 var6 var12 var11 var10 var5))))
(assert (forall ((var0 TSLL) (var1 HeapObject) (var2 TSLL) (var3 HeapObject) (var4 Addr) (var5 Addr) (var6 Addr) (var7 Heap) (var8 Int) (var9 Addr) (var10 Addr) (var11 Addr)) (or (not (and (and (Inv_Heap_exp_exp var11 var10 var9 var8) (_Glue9 var7 var6 var5 var4 var3)) (and (and (and (and (and (= (O_TSLL var2) var1) (= (TSLL var10 var9 var8) var2)) (= (getTSLL var3) var0)) (= (|TSLL::next| var0) var11)) (= (read var7 var11) var1)) (valid var7 var11)))) (_Glue10 var4 var5 var6 var7 var11 var1))))
(assert (forall ((var0 HeapObject) (var1 Addr) (var2 TSLL) (var3 HeapObject) (var4 Addr) (var5 Addr) (var6 Addr) (var7 Heap)) (or (not (and (_Glue9 var7 var6 var5 var4 var3) (and (and (and (= (getTSLL var3) var2) (= (|TSLL::next| var2) var1)) (= (read var7 var1) var0)) (not (valid var7 var1))))) (_Glue10 var4 var5 var6 var7 var1 var0))))
(assert (forall ((var0 Int) (var1 Addr) (var2 TSLL) (var3 HeapObject) (var4 Addr) (var5 Heap) (var6 Addr) (var7 Addr) (var8 Addr)) (or (not (and (_Glue10 var8 var7 var6 var5 var4 var3) (and (and (and (= (getTSLL var3) var2) (= (|TSLL::next| var2) var1)) (= (|TSLL::data| var2) var0)) (valid var5 var4)))) (Inv_Heap_exp_exp var4 var1 var6 var0))))
(assert (forall ((var0 TSLL) (var1 Heap) (var2 HeapObject) (var3 TSLL) (var4 Int) (var5 Addr) (var6 HeapObject) (var7 TSLL) (var8 HeapObject) (var9 Addr) (var10 Heap) (var11 Addr) (var12 Addr) (var13 Int) (var14 Addr) (var15 Addr) (var16 Addr)) (or (not (and (and (Inv_Heap_exp_exp var16 var15 var14 var13) (_Glue10 var12 var11 var16 var10 var9 var8)) (and (and (and (and (and (and (and (and (and (= (O_TSLL var7) var6) (= (TSLL var5 var16 var4) var3)) (= (O_TSLL var3) var2)) (= (TSLL var15 var14 var13) var7)) (= (read var1 var16) var6)) (valid var1 var16)) (= (getTSLL var8) var0)) (= (|TSLL::next| var0) var5)) (= (|TSLL::data| var0) var4)) (= (write var10 var9 var2) var1)))) (_Glue12 var1 var12 var11 var6))))
(assert (forall ((var0 HeapObject) (var1 TSLL) (var2 Int) (var3 Addr) (var4 TSLL) (var5 HeapObject) (var6 Heap) (var7 HeapObject) (var8 Addr) (var9 Heap) (var10 Addr) (var11 Addr) (var12 Addr)) (or (not (and (_Glue10 var12 var11 var10 var9 var8 var7) (and (and (and (and (and (and (and (= (read var6 var10) var5) (not (valid var6 var10))) (= (getTSLL var7) var4)) (= (|TSLL::next| var4) var3)) (= (|TSLL::data| var4) var2)) (= (TSLL var3 var10 var2) var1)) (= (O_TSLL var1) var0)) (= (write var9 var8 var0) var6)))) (_Glue12 var6 var12 var11 var5))))
(assert (forall ((var0 TSLL) (var1 HeapObject) (var2 TSLL) (var3 HeapObject) (var4 Addr) (var5 Addr) (var6 Heap) (var7 Int) (var8 Addr) (var9 Addr) (var10 Addr)) (or (not (and (and (Inv_Heap_exp_exp var10 var9 var8 var7) (_Glue12 var6 var5 var4 var3)) (and (and (and (and (and (and (= (O_TSLL var2) var1) (= (TSLL var9 var8 var7) var2)) (= (getTSLL var3) var0)) (= (|TSLL::next| var0) var10)) (not (= var5 var10))) (= (read var6 var10) var1)) (valid var6 var10)))) (_Glue13 var4 var6 var10 var1))))
(assert (forall ((var0 HeapObject) (var1 Addr) (var2 TSLL) (var3 HeapObject) (var4 Addr) (var5 Addr) (var6 Heap)) (or (not (and (_Glue12 var6 var5 var4 var3) (and (and (and (and (= (getTSLL var3) var2) (= (|TSLL::next| var2) var1)) (not (= var5 var1))) (= (read var6 var1) var0)) (not (valid var6 var1))))) (_Glue13 var4 var6 var1 var0))))
(assert (forall ((var0 Int) (var1 Addr) (var2 Addr) (var3 TSLL) (var4 HeapObject) (var5 Addr) (var6 Heap) (var7 Addr)) (or (not (and (_Glue13 var7 var6 var5 var4) (and (and (and (and (= (getTSLL var4) var3) (= (|TSLL::next| var3) var2)) (= (|TSLL::prev| var3) var1)) (valid var6 var5)) (= var0 0)))) (Inv_Heap_exp_exp var5 var2 var1 var0))))
(assert (forall ((var0 Heap) (var1 HeapObject) (var2 TSLL) (var3 Addr) (var4 Addr) (var5 TSLL) (var6 HeapObject) (var7 Addr) (var8 Heap) (var9 Addr)) (or (not (and (_Glue13 var9 var8 var7 var6) (and (and (and (and (and (= (getTSLL var6) var5) (= (|TSLL::next| var5) var4)) (= (|TSLL::prev| var5) var3)) (= (TSLL var4 var3 0) var2)) (= (O_TSLL var2) var1)) (= (write var8 var7 var1) var0)))) (inv_main1009_2 var0 var9 var7))))
(assert (forall ((var0 AllocResHeap) (var1 Heap) (var2 Int) (var3 Addr) (var4 Addr) (var5 HeapObject) (var6 TSLL)) (or (not (and (and (and (= (O_TSLL var6) var5) (= (TSLL var4 var3 var2) var6)) (= (alloc var1 var5) var0)) (= emptyHeap var1))) (Inv_Heap_exp_exp (newAddr var0) var4 var3 var2))))
(assert (forall ((var0 Addr) (var1 Heap) (var2 HeapObject) (var3 TSLL) (var4 AllocResHeap) (var5 Heap) (var6 HeapObject) (var7 TSLL) (var8 Int) (var9 Addr) (var10 Addr) (var11 Addr)) (or (not (and (Inv_Heap_exp_exp var11 var10 var9 var8) (and (and (and (and (and (and (and (and (= (O_TSLL var7) var6) (= (AllocResHeap var5 var11) var4)) (= (O_TSLL var3) var2)) (= (TSLL var10 var9 var8) var7)) (= (read var5 var11) var6)) (valid var5 var11)) (= (alloc var1 var2) var4)) (= nullAddr var0)) (= emptyHeap var1)))) (_Glue27 var11 var0 var5 var6))))
(assert (forall ((var0 Addr) (var1 Heap) (var2 HeapObject) (var3 TSLL) (var4 AllocResHeap) (var5 HeapObject) (var6 Addr) (var7 Heap)) (or (not (and (and (and (and (and (and (= (read var7 var6) var5) (not (valid var7 var6))) (= (AllocResHeap var7 var6) var4)) (= (O_TSLL var3) var2)) (= (alloc var1 var2) var4)) (= nullAddr var0)) (= emptyHeap var1))) (_Glue27 var6 var0 var7 var5))))
(assert (forall ((var0 Int) (var1 Addr) (var2 TSLL) (var3 HeapObject) (var4 Heap) (var5 Addr) (var6 Addr)) (or (not (and (_Glue27 var6 var5 var4 var3) (and (and (and (= (getTSLL var3) var2) (= (|TSLL::prev| var2) var1)) (= (|TSLL::data| var2) var0)) (valid var4 var6)))) (Inv_Heap_exp_exp var6 var5 var1 var0))))
(assert (forall ((var0 TSLL) (var1 Heap) (var2 HeapObject) (var3 TSLL) (var4 Int) (var5 Addr) (var6 HeapObject) (var7 TSLL) (var8 HeapObject) (var9 Heap) (var10 Addr) (var11 Int) (var12 Addr) (var13 Addr) (var14 Addr)) (or (not (and (and (Inv_Heap_exp_exp var14 var13 var12 var11) (_Glue27 var14 var10 var9 var8)) (and (and (and (and (and (and (and (and (and (= (O_TSLL var7) var6) (= (TSLL var10 var5 var4) var3)) (= (O_TSLL var3) var2)) (= (TSLL var13 var12 var11) var7)) (= (read var1 var14) var6)) (valid var1 var14)) (= (getTSLL var8) var0)) (= (|TSLL::prev| var0) var5)) (= (|TSLL::data| var0) var4)) (= (write var9 var14 var2) var1)))) (_Glue29 var1 var14 var10 var6))))
(assert (forall ((var0 HeapObject) (var1 TSLL) (var2 Int) (var3 Addr) (var4 TSLL) (var5 HeapObject) (var6 Heap) (var7 HeapObject) (var8 Heap) (var9 Addr) (var10 Addr)) (or (not (and (_Glue27 var10 var9 var8 var7) (and (and (and (and (and (and (and (= (read var6 var10) var5) (not (valid var6 var10))) (= (getTSLL var7) var4)) (= (|TSLL::prev| var4) var3)) (= (|TSLL::data| var4) var2)) (= (TSLL var9 var3 var2) var1)) (= (O_TSLL var1) var0)) (= (write var8 var10 var0) var6)))) (_Glue29 var6 var10 var9 var5))))
(assert (forall ((var0 Int) (var1 Addr) (var2 TSLL) (var3 HeapObject) (var4 Addr) (var5 Addr) (var6 Heap)) (or (not (and (_Glue29 var6 var5 var4 var3) (and (and (and (= (getTSLL var3) var2) (= (|TSLL::next| var2) var1)) (= (|TSLL::data| var2) var0)) (valid var6 var5)))) (Inv_Heap_exp_exp var5 var1 var4 var0))))
(assert (forall ((var0 TSLL) (var1 Heap) (var2 HeapObject) (var3 TSLL) (var4 Int) (var5 Addr) (var6 HeapObject) (var7 TSLL) (var8 HeapObject) (var9 Addr) (var10 Heap) (var11 Int) (var12 Addr) (var13 Addr) (var14 Addr)) (or (not (and (and (Inv_Heap_exp_exp var14 var13 var12 var11) (_Glue29 var10 var14 var9 var8)) (and (and (and (and (and (and (and (and (and (= (O_TSLL var7) var6) (= (TSLL var5 var9 var4) var3)) (= (O_TSLL var3) var2)) (= (TSLL var13 var12 var11) var7)) (= (read var1 var14) var6)) (valid var1 var14)) (= (getTSLL var8) var0)) (= (|TSLL::next| var0) var5)) (= (|TSLL::data| var0) var4)) (= (write var10 var14 var2) var1)))) (_Glue31 var1 var14 var6))))
(assert (forall ((var0 HeapObject) (var1 TSLL) (var2 Int) (var3 Addr) (var4 TSLL) (var5 HeapObject) (var6 Heap) (var7 HeapObject) (var8 Addr) (var9 Addr) (var10 Heap)) (or (not (and (_Glue29 var10 var9 var8 var7) (and (and (and (and (and (and (and (= (read var6 var9) var5) (not (valid var6 var9))) (= (getTSLL var7) var4)) (= (|TSLL::next| var4) var3)) (= (|TSLL::data| var4) var2)) (= (TSLL var3 var8 var2) var1)) (= (O_TSLL var1) var0)) (= (write var10 var9 var0) var6)))) (_Glue31 var6 var9 var5))))
(assert (forall ((var0 Int) (var1 Addr) (var2 Addr) (var3 TSLL) (var4 HeapObject) (var5 Addr) (var6 Heap)) (or (not (and (_Glue31 var6 var5 var4) (and (and (and (and (= (getTSLL var4) var3) (= (|TSLL::next| var3) var2)) (= (|TSLL::prev| var3) var1)) (valid var6 var5)) (= var0 0)))) (Inv_Heap_exp_exp var5 var2 var1 var0))))
(assert (forall ((var0 Addr) (var1 Heap) (var2 HeapObject) (var3 TSLL) (var4 Addr) (var5 Addr) (var6 TSLL) (var7 HeapObject) (var8 Addr) (var9 Heap)) (or (not (and (_Glue31 var9 var8 var7) (and (and (and (and (and (and (= (getTSLL var7) var6) (= (|TSLL::next| var6) var5)) (= (|TSLL::prev| var6) var4)) (= (TSLL var5 var4 0) var3)) (= (O_TSLL var3) var2)) (= (write var9 var8 var2) var1)) (= var0 var8)))) (inv_main1009_2 var1 var8 var0))))
(assert (forall ((var0 HeapObject) (var1 TSLL) (var2 Heap) (var3 Int) (var4 Addr) (var5 Addr) (var6 Addr)) (not (and (and (Inv_Heap_exp_exp var6 var5 var4 var3) (inv_main_17 var2 var6)) (and (and (and (and (and (= (O_TSLL var1) var0) (= (TSLL var5 var4 var3) var1)) (not (= 1 var3))) (not (= 0 var3))) (= (read var2 var6) var0)) (valid var2 var6))))))
(assert (forall ((var0 TSLL) (var1 HeapObject) (var2 Int) (var3 Addr) (var4 Heap)) (not (and (inv_main_17 var4 var3) (and (and (and (and (and (not (= 1 var2)) (not (= 0 var2))) (= (read var4 var3) var1)) (= (getTSLL var1) var0)) (= (|TSLL::data| var0) var2)) (not (valid var4 var3)))))))
(assert (forall ((var0 Int) (var1 Addr) (var2 Addr) (var3 Addr) (var4 HeapObject) (var5 TSLL) (var6 Addr) (var7 Heap) (var8 Int) (var9 Addr) (var10 Addr) (var11 Addr)) (or (not (and (and (Inv_Heap_exp_exp var11 var10 var9 var8) (inv_main1009_2 var7 var6 var11)) (and (and (and (and (= (O_TSLL var5) var4) (= (TSLL var10 var9 var8) var5)) (= nullAddr var3)) (= (read var7 var11) var4)) (valid var7 var11)))) (_Glue14_exp_exp var3 var2 var1 var0 var6 var7 var11 var4))))
(assert (forall ((var0 Int) (var1 Addr) (var2 Addr) (var3 HeapObject) (var4 Addr) (var5 Addr) (var6 Addr) (var7 Heap)) (or (not (and (inv_main1009_2 var7 var6 var5) (and (and (= nullAddr var4) (= (read var7 var5) var3)) (not (valid var7 var5))))) (_Glue14_exp_exp var4 var2 var1 var0 var6 var7 var5 var3))))
(assert (forall ((var0 Int) (var1 Addr) (var2 Addr) (var3 TSLL) (var4 HeapObject) (var5 Addr) (var6 Heap) (var7 Addr) (var8 Int) (var9 Addr) (var10 Addr) (var11 Addr)) (or (not (and (_Glue14_exp_exp var11 var10 var9 var8 var7 var6 var5 var4) (and (and (and (and (= (getTSLL var4) var3) (= (|TSLL::next| var3) var2)) (= (|TSLL::prev| var3) var1)) (valid var6 var5)) (= var0 1)))) (Inv_Heap_exp_exp var5 var2 var1 var0))))
(assert (forall ((var0 TSLL) (var1 AllocResHeap) (var2 Heap) (var3 HeapObject) (var4 TSLL) (var5 Addr) (var6 Addr) (var7 HeapObject) (var8 TSLL) (var9 HeapObject) (var10 Addr) (var11 Heap) (var12 Addr) (var13 Int) (var14 Addr) (var15 Addr) (var16 Addr)) (or (not (and (_Glue14_exp_exp var16 var15 var14 var13 var12 var11 var10 var9) (and (and (and (and (and (and (and (and (= (O_TSLL var8) var7) (= (TSLL var6 var5 1) var4)) (= (O_TSLL var4) var3)) (= (TSLL var15 var14 var13) var8)) (= (alloc var2 var7) var1)) (= (getTSLL var9) var0)) (= (|TSLL::next| var0) var6)) (= (|TSLL::prev| var0) var5)) (= (write var11 var10 var3) var2)))) (Inv_Heap_exp_exp (newAddr var1) var15 var14 var13))))
(assert (forall ((var0 TSLL) (var1 Heap) (var2 HeapObject) (var3 TSLL) (var4 Addr) (var5 Addr) (var6 HeapObject) (var7 TSLL) (var8 AllocResHeap) (var9 Addr) (var10 Heap) (var11 HeapObject) (var12 TSLL) (var13 HeapObject) (var14 Heap) (var15 Addr) (var16 Int) (var17 Addr) (var18 Addr) (var19 Addr) (var20 Int) (var21 Addr) (var22 Addr) (var23 Addr)) (or (not (and (and (Inv_Heap_exp_exp var23 var22 var21 var20) (_Glue14_exp_exp var19 var18 var17 var16 var15 var14 var23 var13)) (and (and (and (and (and (and (and (and (and (and (and (and (and (= (O_TSLL var12) var11) (= (AllocResHeap var10 var9) var8)) (= (O_TSLL var7) var6)) (= (TSLL var5 var4 1) var3)) (= (O_TSLL var3) var2)) (= (TSLL var22 var21 var20) var12)) (= (TSLL var18 var17 var16) var7)) (= (read var10 var23) var11)) (valid var10 var23)) (= (alloc var1 var6) var8)) (= (getTSLL var13) var0)) (= (|TSLL::next| var0) var5)) (= (|TSLL::prev| var0) var4)) (= (write var14 var23 var2) var1)))) (_Glue17 var23 var15 var19 var9 var10 var11))))
(assert (forall ((var0 TSLL) (var1 Heap) (var2 HeapObject) (var3 HeapObject) (var4 TSLL) (var5 Addr) (var6 Addr) (var7 HeapObject) (var8 TSLL) (var9 AllocResHeap) (var10 Addr) (var11 Heap) (var12 HeapObject) (var13 Addr) (var14 Heap) (var15 Addr) (var16 Int) (var17 Addr) (var18 Addr) (var19 Addr)) (or (not (and (_Glue14_exp_exp var19 var18 var17 var16 var15 var14 var13 var12) (and (and (and (and (and (and (and (and (and (and (and (= (AllocResHeap var11 var10) var9) (= (O_TSLL var8) var7)) (= (TSLL var6 var5 1) var4)) (= (O_TSLL var4) var3)) (= (TSLL var18 var17 var16) var8)) (= (read var11 var13) var2)) (not (valid var11 var13))) (= (alloc var1 var7) var9)) (= (getTSLL var12) var0)) (= (|TSLL::next| var0) var6)) (= (|TSLL::prev| var0) var5)) (= (write var14 var13 var3) var1)))) (_Glue17 var13 var15 var19 var10 var11 var2))))
(assert (forall ((var0 Int) (var1 Addr) (var2 TSLL) (var3 HeapObject) (var4 Heap) (var5 Addr) (var6 Addr) (var7 Addr) (var8 Addr)) (or (not (and (_Glue17 var8 var7 var6 var5 var4 var3) (and (and (and (= (getTSLL var3) var2) (= (|TSLL::prev| var2) var1)) (= (|TSLL::data| var2) var0)) (valid var4 var8)))) (Inv_Heap_exp_exp var8 var5 var1 var0))))
(assert (forall ((var0 TSLL) (var1 Heap) (var2 HeapObject) (var3 TSLL) (var4 Int) (var5 Addr) (var6 HeapObject) (var7 TSLL) (var8 HeapObject) (var9 Heap) (var10 Addr) (var11 Addr) (var12 Addr) (var13 Int) (var14 Addr) (var15 Addr) (var16 Addr)) (or (not (and (and (Inv_Heap_exp_exp var16 var15 var14 var13) (_Glue17 var16 var12 var11 var10 var9 var8)) (and (and (and (and (and (and (and (and (and (= (O_TSLL var7) var6) (= (TSLL var10 var5 var4) var3)) (= (O_TSLL var3) var2)) (= (TSLL var15 var14 var13) var7)) (= (read var1 var16) var6)) (valid var1 var16)) (= (getTSLL var8) var0)) (= (|TSLL::prev| var0) var5)) (= (|TSLL::data| var0) var4)) (= (write var9 var16 var2) var1)))) (_Glue19 var1 var16 var12 var11 var6))))
(assert (forall ((var0 HeapObject) (var1 TSLL) (var2 Int) (var3 Addr) (var4 TSLL) (var5 HeapObject) (var6 Heap) (var7 HeapObject) (var8 Heap) (var9 Addr) (var10 Addr) (var11 Addr) (var12 Addr)) (or (not (and (_Glue17 var12 var11 var10 var9 var8 var7) (and (and (and (and (and (and (and (= (read var6 var12) var5) (not (valid var6 var12))) (= (getTSLL var7) var4)) (= (|TSLL::prev| var4) var3)) (= (|TSLL::data| var4) var2)) (= (TSLL var9 var3 var2) var1)) (= (O_TSLL var1) var0)) (= (write var8 var12 var0) var6)))) (_Glue19 var6 var12 var11 var10 var5))))
(assert (forall ((var0 TSLL) (var1 HeapObject) (var2 TSLL) (var3 HeapObject) (var4 Addr) (var5 Addr) (var6 Addr) (var7 Heap) (var8 Int) (var9 Addr) (var10 Addr) (var11 Addr)) (or (not (and (and (Inv_Heap_exp_exp var11 var10 var9 var8) (_Glue19 var7 var6 var5 var4 var3)) (and (and (and (and (and (= (O_TSLL var2) var1) (= (TSLL var10 var9 var8) var2)) (= (getTSLL var3) var0)) (= (|TSLL::next| var0) var11)) (= (read var7 var11) var1)) (valid var7 var11)))) (_Glue20 var4 var5 var6 var7 var11 var1))))
(assert (forall ((var0 HeapObject) (var1 Addr) (var2 TSLL) (var3 HeapObject) (var4 Addr) (var5 Addr) (var6 Addr) (var7 Heap)) (or (not (and (_Glue19 var7 var6 var5 var4 var3) (and (and (and (= (getTSLL var3) var2) (= (|TSLL::next| var2) var1)) (= (read var7 var1) var0)) (not (valid var7 var1))))) (_Glue20 var4 var5 var6 var7 var1 var0))))
(assert (forall ((var0 Int) (var1 Addr) (var2 TSLL) (var3 HeapObject) (var4 Addr) (var5 Heap) (var6 Addr) (var7 Addr) (var8 Addr)) (or (not (and (_Glue20 var8 var7 var6 var5 var4 var3) (and (and (and (= (getTSLL var3) var2) (= (|TSLL::next| var2) var1)) (= (|TSLL::data| var2) var0)) (valid var5 var4)))) (Inv_Heap_exp_exp var4 var1 var6 var0))))
(assert (forall ((var0 TSLL) (var1 Heap) (var2 HeapObject) (var3 TSLL) (var4 Int) (var5 Addr) (var6 HeapObject) (var7 TSLL) (var8 HeapObject) (var9 Addr) (var10 Heap) (var11 Addr) (var12 Addr) (var13 Int) (var14 Addr) (var15 Addr) (var16 Addr)) (or (not (and (and (Inv_Heap_exp_exp var16 var15 var14 var13) (_Glue20 var12 var11 var16 var10 var9 var8)) (and (and (and (and (and (and (and (and (and (= (O_TSLL var7) var6) (= (TSLL var5 var16 var4) var3)) (= (O_TSLL var3) var2)) (= (TSLL var15 var14 var13) var7)) (= (read var1 var16) var6)) (valid var1 var16)) (= (getTSLL var8) var0)) (= (|TSLL::next| var0) var5)) (= (|TSLL::data| var0) var4)) (= (write var10 var9 var2) var1)))) (_Glue22 var1 var12 var11 var6))))
(assert (forall ((var0 HeapObject) (var1 TSLL) (var2 Int) (var3 Addr) (var4 TSLL) (var5 HeapObject) (var6 Heap) (var7 HeapObject) (var8 Addr) (var9 Heap) (var10 Addr) (var11 Addr) (var12 Addr)) (or (not (and (_Glue20 var12 var11 var10 var9 var8 var7) (and (and (and (and (and (and (and (= (read var6 var10) var5) (not (valid var6 var10))) (= (getTSLL var7) var4)) (= (|TSLL::next| var4) var3)) (= (|TSLL::data| var4) var2)) (= (TSLL var3 var10 var2) var1)) (= (O_TSLL var1) var0)) (= (write var9 var8 var0) var6)))) (_Glue22 var6 var12 var11 var5))))
(assert (forall ((var0 TSLL) (var1 HeapObject) (var2 TSLL) (var3 HeapObject) (var4 Addr) (var5 Addr) (var6 Heap) (var7 Int) (var8 Addr) (var9 Addr) (var10 Addr)) (or (not (and (and (Inv_Heap_exp_exp var10 var9 var8 var7) (_Glue22 var6 var5 var4 var3)) (and (and (and (and (and (= (O_TSLL var2) var1) (= (TSLL var9 var8 var7) var2)) (= (getTSLL var3) var0)) (= (|TSLL::next| var0) var10)) (= (read var6 var10) var1)) (valid var6 var10)))) (_Glue23 var4 var5 var6 var10 var1))))
(assert (forall ((var0 HeapObject) (var1 Addr) (var2 TSLL) (var3 HeapObject) (var4 Addr) (var5 Addr) (var6 Heap)) (or (not (and (_Glue22 var6 var5 var4 var3) (and (and (and (= (getTSLL var3) var2) (= (|TSLL::next| var2) var1)) (= (read var6 var1) var0)) (not (valid var6 var1))))) (_Glue23 var4 var5 var6 var1 var0))))
(assert (forall ((var0 Int) (var1 Addr) (var2 Addr) (var3 TSLL) (var4 HeapObject) (var5 Addr) (var6 Heap) (var7 Addr) (var8 Addr)) (or (not (and (_Glue23 var8 var7 var6 var5 var4) (and (and (and (and (and (= (getTSLL var4) var3) (= (|TSLL::next| var3) var2)) (= (|TSLL::prev| var3) var1)) (not (= var7 var8))) (valid var6 var5)) (= var0 2)))) (Inv_Heap_exp_exp var5 var2 var1 var0))))
(assert (forall ((var0 Heap) (var1 HeapObject) (var2 TSLL) (var3 Addr) (var4 Addr) (var5 TSLL) (var6 HeapObject) (var7 Addr) (var8 Heap) (var9 Addr) (var10 Addr)) (or (not (and (_Glue23 var10 var9 var8 var7 var6) (and (and (and (and (and (and (= (getTSLL var6) var5) (= (|TSLL::next| var5) var4)) (= (|TSLL::prev| var5) var3)) (= (TSLL var4 var3 2) var2)) (= (O_TSLL var2) var1)) (= (write var8 var7 var1) var0)) (not (= var9 var10))))) (inv_main_17 var0 var10))))
(assert (forall ((var0 HeapObject) (var1 TSLL) (var2 Heap) (var3 Addr) (var4 Addr) (var5 Addr)) (or (not (and (and (Inv_Heap_exp_exp var5 var4 var3 0) (inv_main_17 var2 var5)) (and (and (and (= (O_TSLL var1) var0) (= (TSLL var4 var3 0) var1)) (= (read var2 var5) var0)) (valid var2 var5)))) (inv_main_17 var2 var4))))
(assert (forall ((var0 Addr) (var1 TSLL) (var2 HeapObject) (var3 Addr) (var4 Heap)) (or (not (and (inv_main_17 var4 var3) (and (and (and (and (= (read var4 var3) var2) (= (getTSLL var2) var1)) (= (|TSLL::data| var1) 0)) (= (|TSLL::next| var1) var0)) (not (valid var4 var3))))) (inv_main_17 var4 var0))))
(assert (forall ((var0 AllocResHeap) (var1 Int) (var2 Addr) (var3 Addr) (var4 HeapObject) (var5 TSLL) (var6 Addr) (var7 Addr) (var8 Heap)) (or (not (and (inv_main1009_2 var8 var7 var6) (and (and (= (O_TSLL var5) var4) (= (TSLL var3 var2 var1) var5)) (= (alloc var8 var4) var0)))) (Inv_Heap_exp_exp (newAddr var0) var3 var2 var1))))
(assert (forall ((var0 Addr) (var1 AllocResHeap) (var2 Addr) (var3 Heap) (var4 HeapObject) (var5 TSLL) (var6 HeapObject) (var7 TSLL) (var8 Addr) (var9 Heap) (var10 Int) (var11 Addr) (var12 Addr) (var13 Addr)) (or (not (and (and (Inv_Heap_exp_exp var13 var12 var11 var10) (inv_main1009_2 var9 var8 var13)) (and (and (and (and (and (and (and (= (O_TSLL var7) var6) (= (O_TSLL var5) var4)) (= (AllocResHeap var3 var2) var1)) (= (TSLL var12 var11 var10) var7)) (= (read var3 var13) var6)) (valid var3 var13)) (= nullAddr var0)) (= (alloc var9 var4) var1)))) (_Glue1 var13 var0 var2 var3 var6))))
(assert (forall ((var0 Addr) (var1 AllocResHeap) (var2 Addr) (var3 HeapObject) (var4 TSLL) (var5 HeapObject) (var6 Heap) (var7 Addr) (var8 Addr) (var9 Heap)) (or (not (and (inv_main1009_2 var9 var8 var7) (and (and (and (and (and (= (read var6 var7) var5) (not (valid var6 var7))) (= (O_TSLL var4) var3)) (= (AllocResHeap var6 var2) var1)) (= nullAddr var0)) (= (alloc var9 var3) var1)))) (_Glue1 var7 var0 var2 var6 var5))))
(assert (forall ((var0 Int) (var1 Addr) (var2 TSLL) (var3 HeapObject) (var4 Heap) (var5 Addr) (var6 Addr) (var7 Addr)) (or (not (and (_Glue1 var7 var6 var5 var4 var3) (and (and (and (= (getTSLL var3) var2) (= (|TSLL::prev| var2) var1)) (= (|TSLL::data| var2) var0)) (valid var4 var7)))) (Inv_Heap_exp_exp var7 var5 var1 var0))))
(assert (forall ((var0 TSLL) (var1 Heap) (var2 HeapObject) (var3 TSLL) (var4 Int) (var5 Addr) (var6 HeapObject) (var7 TSLL) (var8 HeapObject) (var9 Heap) (var10 Addr) (var11 Addr) (var12 Int) (var13 Addr) (var14 Addr) (var15 Addr)) (or (not (and (and (Inv_Heap_exp_exp var15 var14 var13 var12) (_Glue1 var15 var11 var10 var9 var8)) (and (and (and (and (and (and (and (and (and (= (O_TSLL var7) var6) (= (TSLL var10 var5 var4) var3)) (= (O_TSLL var3) var2)) (= (TSLL var14 var13 var12) var7)) (= (read var1 var15) var6)) (valid var1 var15)) (= (getTSLL var8) var0)) (= (|TSLL::prev| var0) var5)) (= (|TSLL::data| var0) var4)) (= (write var9 var15 var2) var1)))) (_Glue3 var1 var15 var11 var6))))
(assert (forall ((var0 HeapObject) (var1 TSLL) (var2 Int) (var3 Addr) (var4 TSLL) (var5 HeapObject) (var6 Heap) (var7 HeapObject) (var8 Heap) (var9 Addr) (var10 Addr) (var11 Addr)) (or (not (and (_Glue1 var11 var10 var9 var8 var7) (and (and (and (and (and (and (and (= (read var6 var11) var5) (not (valid var6 var11))) (= (getTSLL var7) var4)) (= (|TSLL::prev| var4) var3)) (= (|TSLL::data| var4) var2)) (= (TSLL var9 var3 var2) var1)) (= (O_TSLL var1) var0)) (= (write var8 var11 var0) var6)))) (_Glue3 var6 var11 var10 var5))))
(assert (forall ((var0 TSLL) (var1 HeapObject) (var2 TSLL) (var3 HeapObject) (var4 Addr) (var5 Addr) (var6 Heap) (var7 Int) (var8 Addr) (var9 Addr) (var10 Addr)) (or (not (and (and (Inv_Heap_exp_exp var10 var9 var8 var7) (_Glue3 var6 var5 var4 var3)) (and (and (and (and (and (= (O_TSLL var2) var1) (= (TSLL var9 var8 var7) var2)) (= (getTSLL var3) var0)) (= (|TSLL::next| var0) var10)) (= (read var6 var10) var1)) (valid var6 var10)))) (_Glue4 var4 var5 var6 var10 var1))))
(assert (forall ((var0 HeapObject) (var1 Addr) (var2 TSLL) (var3 HeapObject) (var4 Addr) (var5 Addr) (var6 Heap)) (or (not (and (_Glue3 var6 var5 var4 var3) (and (and (and (= (getTSLL var3) var2) (= (|TSLL::next| var2) var1)) (= (read var6 var1) var0)) (not (valid var6 var1))))) (_Glue4 var4 var5 var6 var1 var0))))
(assert (forall ((var0 Int) (var1 Addr) (var2 TSLL) (var3 HeapObject) (var4 Addr) (var5 Heap) (var6 Addr) (var7 Addr)) (or (not (and (_Glue4 var7 var6 var5 var4 var3) (and (and (and (= (getTSLL var3) var2) (= (|TSLL::next| var2) var1)) (= (|TSLL::data| var2) var0)) (valid var5 var4)))) (Inv_Heap_exp_exp var4 var1 var6 var0))))
(assert (forall ((var0 TSLL) (var1 Heap) (var2 HeapObject) (var3 TSLL) (var4 Int) (var5 Addr) (var6 HeapObject) (var7 TSLL) (var8 HeapObject) (var9 Addr) (var10 Heap) (var11 Int) (var12 Addr) (var13 Addr) (var14 Addr)) (not (and (and (Inv_Heap_exp_exp var14 var13 var12 var11) (_Glue4 var13 var14 var10 var9 var8)) (and (and (and (and (and (and (and (and (and (= (O_TSLL var7) var6) (= (TSLL var5 var14 var4) var3)) (= (O_TSLL var3) var2)) (= (TSLL var13 var12 var11) var7)) (= (read var1 var14) var6)) (valid var1 var14)) (= (getTSLL var8) var0)) (= (|TSLL::next| var0) var5)) (= (|TSLL::data| var0) var4)) (= (write var10 var9 var2) var1))))))
(assert (forall ((var0 HeapObject) (var1 TSLL) (var2 Int) (var3 Addr) (var4 TSLL) (var5 TSLL) (var6 HeapObject) (var7 Heap) (var8 HeapObject) (var9 Addr) (var10 Heap) (var11 Addr) (var12 Addr)) (not (and (_Glue4 var12 var11 var10 var9 var8) (and (and (and (and (and (and (and (and (and (= (read var7 var11) var6) (= (getTSLL var6) var5)) (= (|TSLL::next| var5) var12)) (not (valid var7 var11))) (= (getTSLL var8) var4)) (= (|TSLL::next| var4) var3)) (= (|TSLL::data| var4) var2)) (= (TSLL var3 var11 var2) var1)) (= (O_TSLL var1) var0)) (= (write var10 var9 var0) var7))))))
(assert (forall ((var0 HeapObject) (var1 TSLL) (var2 Heap) (var3 Int) (var4 Addr) (var5 Addr) (var6 Addr)) (or (not (and (and (Inv_Heap_exp_exp var6 var5 var4 var3) (inv_main_17 var2 var6)) (and (and (and (= (O_TSLL var1) var0) (= (TSLL var5 var4 var3) var1)) (= (read var2 var6) var0)) (valid var2 var6)))) (_Glue24 var2 var0))))
(assert (forall ((var0 HeapObject) (var1 Addr) (var2 Heap)) (or (not (and (inv_main_17 var2 var1) (and (= (read var2 var1) var0) (not (valid var2 var1))))) (_Glue24 var2 var0))))
(assert (forall ((var0 TSLL) (var1 HeapObject) (var2 TSLL) (var3 HeapObject) (var4 Heap) (var5 Int) (var6 Addr) (var7 Addr) (var8 Addr)) (not (and (and (Inv_Heap_exp_exp var8 var7 var6 var5) (_Glue24 var4 var3)) (and (and (and (and (and (and (and (= (O_TSLL var2) var1) (= (TSLL var7 var6 var5) var2)) (= (getTSLL var3) var0)) (= (|TSLL::data| var0) 1)) (= (|TSLL::next| var0) var8)) (= (read var4 var8) var1)) (not (= 2 var5))) (valid var4 var8))))))
(assert (forall ((var0 Int) (var1 TSLL) (var2 HeapObject) (var3 Addr) (var4 TSLL) (var5 HeapObject) (var6 Heap)) (not (and (_Glue24 var6 var5) (and (and (and (and (and (and (and (= (getTSLL var5) var4) (= (|TSLL::data| var4) 1)) (= (|TSLL::next| var4) var3)) (= (read var6 var3) var2)) (= (getTSLL var2) var1)) (= (|TSLL::data| var1) var0)) (not (= 2 var0))) (not (valid var6 var3)))))))
(check-sat)
